\ Model Routes
\ LP format - for model browsing. Use MPS format to capture full model detail.
Maximize
  1533.228206194839 R{0,0} + 2591.679024458567 R{0,1}
   + 2591.679024458567 R{0,2} - 249.2301939667805 R{0,3}
   - 17.2186063228686 R{0,4} + 1085.481438609255 R{0,5}
   + 1085.481438609255 R{0,6} + 50.21028675269167 R{0,7}
   + 2526.132813791525 R{0,8} + 2247.8969025311 R{0,9}
   + 2713.159899583136 R{0,10} + 2210.047347802193 R{0,11}
   + 2888.887515343601 R{0,12} + 1869.479839551913 R{0,13}
   + 1442.990551650797 R{0,14} + 2214.273323373949 R{0,15}
   + 2071.519986804486 R{0,16} + 1514.248353620732 R{0,17}
   + 2108.114721234363 R{0,18} + 1401.491672923017 R{0,19}
   - 256.140831891889 R{1,0} + 165.2076460747254 R{1,1}
   + 1217.268818571461 R{1,2} + 1217.268818571461 R{1,3}
   + 528.8312041238137 R{1,4} + 1023.505552243538 R{1,5}
   + 373.0361549477677 R{1,6} + 1189.496626086917 R{1,7}
   + 364.5327871002562 R{1,8} + 788.338698432717 R{1,9}
   + 742.0822590557847 R{1,10} + 807.715455725797 R{1,11}
   - 278.4443928850388 R{2,0} - 59.13410337035452 R{2,1}
   + 602.7748664658451 R{2,2} + 1100.505917706273 R{2,3}
   + 1005.777703503751 R{2,4} + 791.1074240820667 R{2,5}
   + 1190.170688672337 R{2,6} + 1260.790528676122 R{2,7}
   + 465.2175846111744 R{2,8} + 906.9444311050818 R{2,9}
   + 379.0330993156042 R{2,10} + 490.3873234774094 R{2,11}
   - 260.2482995389823 R{3,0} + 776.7057233314238 R{3,1}
   + 1144.646686597953 R{3,2} + 1468.426278474687 R{3,3}
   + 836.7395150096463 R{3,4} + 231.628455664379 R{3,5}
   + 1638.826706206871 R{3,6} + 668.8151015508819 R{3,7}
   + 1675.2905390355 R{3,8} + 173.8853614733317 R{3,9}
   + 1153.455478712504 R{3,10} + 1720.98052616288 R{3,11}
   + 955.5105324169622 R{3,12} + 865.3793364354319 R{3,13}
   + 1196.313928942785 R{3,14} + 1749.38394013851 R{3,15}
   + 750.6805655317251 R{3,16} + 1047.064379458435 R{3,17}
   - 242.5208875955131 R{4,0} + 1055.572474837385 R{4,1}
   + 1576.196574514046 R{4,2} + 940.9858490724757 R{4,3}
   + 1082.874083375352 R{4,4} + 929.7243682388591 R{4,5}
   + 1600.37873589961 R{4,6} + 1079.754636222949 R{4,7}
   + 916.9072887801103 R{4,8} + 1396.332219309262 R{4,9}
   + 911.5147488496186 R{4,10} + 934.4833814353453 R{4,11}
   + 731.8226089369361 R{4,12} + 1283.693189950874 R{4,13}
   + 911.5147488496186 R{4,14} + 1315.0759362802 R{4,15}
   + 754.5313522654737 R{4,16} + 1365.326677281656 R{4,17}
   + 893.6783946752951 R{4,18} - 231.9775664337766 R{5,0}
   + 251.2011413408645 R{5,1} + 835.6653627301428 R{5,2}
   + 127.8505753705095 R{5,3} + 1104.108853524406 R{5,4}
   + 806.3148645746837 R{5,5} + 623.5144966951177 R{5,6}
   + 1051.171231565178 R{5,7} + 270.9796855600711 R{5,8}
   - 231.1436095783099 R{6,0} + 1195.286596672249 R{6,1}
   + 2138.911397941406 R{6,2} + 2560.066428814385 R{6,3}
   + 1132.771849757562 R{6,4} + 2183.987120342746 R{6,5}
   + 1345.527564992424 R{6,6} + 1369.715677174462 R{6,7}
   + 2214.410192322424 R{6,8} + 1241.33458651584 R{6,9}
   + 993.0375103541746 R{6,10} + 2282.91446699879 R{6,11}
   + 1637.572915303899 R{6,12} + 1191.627447618059 R{6,13}
   + 2322.249538549492 R{6,14} + 1749.45637142615 R{6,15}
   + 1247.664662360809 R{6,16}
Subject To
 R00: R{0,0} <= 1
 R01: R{0,1} <= 1
 R02: R{0,2} <= 1
 R03: R{0,3} <= 1
 R04: R{0,4} <= 1
 R05: R{0,5} <= 1
 R06: R{0,6} <= 1
 R07: R{0,7} <= 1
 R08: R{0,8} <= 1
 R09: R{0,9} <= 1
 R010: R{0,10} <= 1
 R011: R{0,11} <= 1
 R012: R{0,12} <= 1
 R013: R{0,13} <= 1
 R014: R{0,14} <= 1
 R015: R{0,15} <= 1
 R016: R{0,16} <= 1
 R017: R{0,17} <= 1
 R018: R{0,18} <= 1
 R019: R{0,19} <= 1
 R020: R{1,0} <= 1
 R021: R{1,1} <= 1
 R022: R{1,2} <= 1
 R023: R{1,3} <= 1
 R024: R{1,4} <= 1
 R025: R{1,5} <= 1
 R026: R{1,6} <= 1
 R027: R{1,7} <= 1
 R028: R{1,8} <= 1
 R029: R{1,9} <= 1
 R030: R{1,10} <= 1
 R031: R{1,11} <= 1
 R032: R{2,0} <= 1
 R033: R{2,1} <= 1
 R034: R{2,2} <= 1
 R035: R{2,3} <= 1
 R036: R{2,4} <= 1
 R037: R{2,5} <= 1
 R038: R{2,6} <= 1
 R039: R{2,7} <= 1
 R040: R{2,8} <= 1
 R041: R{2,9} <= 1
 R042: R{2,10} <= 1
 R043: R{2,11} <= 1
 R044: R{3,0} <= 1
 R045: R{3,1} <= 1
 R046: R{3,2} <= 1
 R047: R{3,3} <= 1
 R048: R{3,4} <= 1
 R049: R{3,5} <= 1
 R050: R{3,6} <= 1
 R051: R{3,7} <= 1
 R052: R{3,8} <= 1
 R053: R{3,9} <= 1
 R054: R{3,10} <= 1
 R055: R{3,11} <= 1
 R056: R{3,12} <= 1
 R057: R{3,13} <= 1
 R058: R{3,14} <= 1
 R059: R{3,15} <= 1
 R060: R{3,16} <= 1
 R061: R{3,17} <= 1
 R062: R{4,0} <= 1
 R063: R{4,1} <= 1
 R064: R{4,2} <= 1
 R065: R{4,3} <= 1
 R066: R{4,4} <= 1
 R067: R{4,5} <= 1
 R068: R{4,6} <= 1
 R069: R{4,7} <= 1
 R070: R{4,8} <= 1
 R071: R{4,9} <= 1
 R072: R{4,10} <= 1
 R073: R{4,11} <= 1
 R074: R{4,12} <= 1
 R075: R{4,13} <= 1
 R076: R{4,14} <= 1
 R077: R{4,15} <= 1
 R078: R{4,16} <= 1
 R079: R{4,17} <= 1
 R080: R{4,18} <= 1
 R081: R{5,0} <= 1
 R082: R{5,1} <= 1
 R083: R{5,2} <= 1
 R084: R{5,3} <= 1
 R085: R{5,4} <= 1
 R086: R{5,5} <= 1
 R087: R{5,6} <= 1
 R088: R{5,7} <= 1
 R089: R{5,8} <= 1
 R090: R{6,0} <= 1
 R091: R{6,1} <= 1
 R092: R{6,2} <= 1
 R093: R{6,3} <= 1
 R094: R{6,4} <= 1
 R095: R{6,5} <= 1
 R096: R{6,6} <= 1
 R097: R{6,7} <= 1
 R098: R{6,8} <= 1
 R099: R{6,9} <= 1
 R0100: R{6,10} <= 1
 R0101: R{6,11} <= 1
 R0102: R{6,12} <= 1
 R0103: R{6,13} <= 1
 R0104: R{6,14} <= 1
 R0105: R{6,15} <= 1
 R0106: R{6,16} <= 1
 R1_0: R{0,0} + R{0,1} + R{0,2} + R{0,3} + R{0,4} + R{0,5} + R{0,6}
   + R{0,7} + R{0,8} + R{0,9} + R{0,10} + R{0,11} + R{0,12} + R{0,13}
   + R{0,14} + R{0,15} + R{0,16} + R{0,17} + R{0,18} + R{0,19} <= 1
 R1_1: R{1,0} + R{1,1} + R{1,2} + R{1,3} + R{1,4} + R{1,5} + R{1,6}
   + R{1,7} + R{1,8} + R{1,9} + R{1,10} + R{1,11} <= 1
 R1_2: R{2,0} + R{2,1} + R{2,2} + R{2,3} + R{2,4} + R{2,5} + R{2,6}
   + R{2,7} + R{2,8} + R{2,9} + R{2,10} + R{2,11} <= 1
 R1_3: R{3,0} + R{3,1} + R{3,2} + R{3,3} + R{3,4} + R{3,5} + R{3,6}
   + R{3,7} + R{3,8} + R{3,9} + R{3,10} + R{3,11} + R{3,12} + R{3,13}
   + R{3,14} + R{3,15} + R{3,16} + R{3,17} <= 1
 R1_4: R{4,0} + R{4,1} + R{4,2} + R{4,3} + R{4,4} + R{4,5} + R{4,6}
   + R{4,7} + R{4,8} + R{4,9} + R{4,10} + R{4,11} + R{4,12} + R{4,13}
   + R{4,14} + R{4,15} + R{4,16} + R{4,17} + R{4,18} <= 1
 R1_5: R{5,0} + R{5,1} + R{5,2} + R{5,3} + R{5,4} + R{5,5} + R{5,6}
   + R{5,7} + R{5,8} <= 1
 R1_6: R{6,0} + R{6,1} + R{6,2} + R{6,3} + R{6,4} + R{6,5} + R{6,6}
   + R{6,7} + R{6,8} + R{6,9} + R{6,10} + R{6,11} + R{6,12} + R{6,13}
   + R{6,14} + R{6,15} + R{6,16} <= 1
 R2_0: 7 R{0,0} + 7 R{0,1} + 7 R{0,2} + 7 R{0,8} + 7 R{0,9} + 7 R{0,10}
   + 7 R{0,11} + 7 R{0,12} + 7 R{0,13} + 7 R{0,15} + 7 R{0,16} + 7 R{0,17}
   + 7 R{0,18} + 7 R{0,19} <= 7
 R2_1: 10 R{1,8} + 10 R{1,9} + 10 R{1,11} + 10 R{3,1} + 10 R{3,2}
   + 10 R{3,3} + 10 R{3,6} + 10 R{3,8} + 10 R{3,11} + 10 R{3,12}
   + 10 R{3,14} + 10 R{3,15} + 10 R{3,17} <= 10
 R2_2: <= 0
 R2_3: 4 R{2,5} + 4 R{3,1} + 4 R{3,2} + 4 R{3,3} + 4 R{3,4} + 4 R{3,5}
   + 4 R{3,7} + 4 R{3,10} + 4 R{3,11} + 4 R{3,13} + 4 R{3,16} <= 4
 R2_4: <= 0
 R2_5: 5 R{0,4} + 5 R{0,5} + 5 R{0,6} <= 5
 R2_6: 10 R{0,14} + 10 R{1,1} + 10 R{1,2} + 10 R{1,3} + 10 R{1,4}
   + 10 R{1,5} + 10 R{1,6} + 10 R{1,7} + 10 R{1,8} + 10 R{2,9} <= 10
 R2_7: 6 R{1,1} + 6 R{1,2} + 6 R{1,3} + 6 R{1,4} + 6 R{1,5} + 6 R{1,6}
   + 6 R{1,8} + 6 R{1,9} <= 6
 R2_8: <= 0
 R2_9: 12 R{0,17} + 12 R{4,1} + 12 R{4,2} + 12 R{4,3} + 12 R{4,4}
   + 12 R{4,5} + 12 R{4,6} + 12 R{4,7} + 12 R{4,8} + 12 R{4,9} + 12 R{4,10}
   + 12 R{4,11} + 12 R{4,12} + 12 R{4,13} + 12 R{4,14} + 12 R{4,15}
   + 12 R{4,16} + 12 R{4,17} + 12 R{4,18} <= 12
 R2_10: 8 R{6,1} + 8 R{6,2} + 8 R{6,4} + 8 R{6,5} + 8 R{6,6} + 8 R{6,9}
   + 8 R{6,10} <= 8
 R2_11: <= 0
 R2_12: <= 0
 R2_13: <= 0
 R2_14: <= 0
 R2_15: 11 R{0,0} + 11 R{0,1} + 11 R{0,2} + 11 R{0,16} + 11 R{4,1}
   + 11 R{4,2} + 11 R{4,3} + 11 R{4,13} <= 11
 R2_16: <= 0
 R2_17: 11 R{0,18} + 11 R{3,16} <= 11
 R2_18: <= 0
 R2_19: 5 R{1,5} + 11 R{2,4} + 11 R{2,5} + 11 R{2,7} + 11 R{4,1}
   + 11 R{4,2} + 11 R{4,3} + 11 R{4,4} + 11 R{4,5} + 11 R{4,6} + 11 R{4,7}
   + 11 R{4,8} + 11 R{4,9} + 11 R{4,10} + 11 R{4,13} + 11 R{4,14}
   + 11 R{4,17} + 11 R{5,6} <= 11
 R2_20: 13 R{2,3} + 13 R{2,6} + 13 R{2,8} + 13 R{3,3} + 13 R{3,7}
   + 13 R{6,1} + 13 R{6,2} + 13 R{6,3} + 13 R{6,4} + 13 R{6,5} + 13 R{6,8}
   <= 13
 R2_21: <= 0
 R2_22: 10 R{4,10} + 10 R{4,12} + 10 R{4,14} + 10 R{6,13} <= 10
 R2_23: 14 R{4,11} + 14 R{4,17} + 14 R{6,3} + 14 R{6,8} + 14 R{6,11}
   + 14 R{6,12} + 14 R{6,13} + 14 R{6,14} + 14 R{6,15} + 14 R{6,16} <= 14
 R2_24: 10 R{0,9} + 10 R{1,10} + 10 R{1,11} + 10 R{2,6} + 8 R{2,10}
   + 10 R{3,1} + 10 R{3,2} + 10 R{3,3} + 10 R{3,4} + 10 R{3,6} + 10 R{3,7}
   + 10 R{3,11} + 10 R{3,12} + 10 R{3,15} + 10 R{3,17} + 10 R{4,15} <= 10
 R2_25: 13 R{0,0} + 13 R{0,1} + 13 R{0,2} + 13 R{0,8} + 13 R{0,9}
   + 13 R{0,10} + 13 R{0,11} + 13 R{0,12} + 13 R{0,13} + 13 R{0,15}
   + 13 R{0,16} + 13 R{0,17} + 13 R{0,19} + 13 R{3,17} + 13 R{4,1}
   + 13 R{4,2} + 13 R{4,3} + 13 R{4,4} + 13 R{4,5} + 13 R{4,6} + 13 R{4,7}
   + 13 R{4,8} + 13 R{4,9} + 13 R{4,11} + 13 R{4,13} + 13 R{4,16}
   + 13 R{4,17} + 13 R{4,18} <= 13
 R2_26: 6 R{1,10} + 6 R{5,1} + 6 R{5,2} + 6 R{5,3} + 6 R{5,4} + 6 R{5,5}
   + 6 R{5,6} + 6 R{5,8} + 6 R{6,14} + 6 R{6,15} <= 6
 R2_27: 5 R{0,5} + 5 R{0,6} + 5 R{0,12} + 5 R{0,14} + 5 R{0,16} + 5 R{0,18}
   + 5 R{1,4} + 5 R{1,7} + 5 R{1,10} + 5 R{1,11} + 5 R{2,5} + 5 R{2,7}
   + 5 R{2,11} + 5 R{3,8} + 5 R{3,14} + 5 R{4,13} + 5 R{4,15} + 5 R{4,18}
   + 5 R{6,1} + 5 R{6,2} + 5 R{6,3} + 5 R{6,4} + 5 R{6,5} + 5 R{6,6}
   + 5 R{6,7} + 5 R{6,8} + 5 R{6,9} + 5 R{6,10} + 5 R{6,11} + 5 R{6,12}
   + 5 R{6,14} + 5 R{6,15} <= 5
 R2_28: <= 0
 R2_29: <= 0
 R2_30: <= 0
 R2_31: <= 0
 R2_32: 7 R{1,11} + 7 R{5,1} + 7 R{5,2} + 7 R{5,3} + 7 R{5,4} + 7 R{5,7}
   + 7 R{5,8} <= 7
 R2_33: 12 R{4,15} + 12 R{6,7} <= 12
 R2_34: 5 R{0,0} + 5 R{0,1} + 5 R{0,2} + 5 R{0,8} + 5 R{0,9} + 5 R{0,10}
   + 5 R{0,11} + 5 R{0,12} + 5 R{0,13} + 5 R{0,15} + 5 R{0,16} + 5 R{0,17}
   + 5 R{0,18} + 5 R{0,19} + 5 R{3,13} <= 5
 R2_35: <= 0
 R2_36: 15 R{1,1} + 15 R{1,2} + 15 R{1,3} + 15 R{1,4} + 15 R{1,5}
   + 15 R{1,7} <= 16
 R2_37: 5 R{3,1} + 5 R{3,2} + 5 R{3,4} + 5 R{3,5} + 5 R{3,9} + 5 R{3,10}
   + 5 R{3,12} + 5 R{3,13} + 5 R{3,16} + 5 R{3,17} + 5 R{5,7} + 5 R{5,8}
   <= 5
 R2_38: <= 0
 R2_39: 15 R{0,0} + 15 R{0,1} + 15 R{0,2} + 15 R{0,8} + 15 R{0,10}
   + 15 R{0,12} + 15 R{0,13} + 15 R{0,16} + 15 R{0,18} + 15 R{0,19} <= 17
 R2_40: 15 R{2,1} + 15 R{2,2} + 15 R{2,3} + 15 R{2,4} + 15 R{2,5}
   + 15 R{2,6} + 15 R{2,8} + 15 R{2,9} + 15 R{2,10} + 15 R{2,11}
   + 15 R{5,5} <= 15
 R2_41: 5 R{0,0} + 5 R{0,1} + 5 R{0,2} + 5 R{0,8} + 5 R{0,9} + 5 R{0,10}
   + 5 R{0,11} + 5 R{0,12} + 5 R{0,13} + 5 R{0,15} + 5 R{0,16} + 5 R{0,18}
   + 5 R{1,2} + 5 R{1,3} + 5 R{3,2} + 5 R{3,3} + 5 R{3,4} + 5 R{3,10}
   + 5 R{3,11} + 5 R{3,13} + 5 R{3,16} <= 5
 R2_42: 4 R{2,1} + 4 R{2,2} + 4 R{2,3} + 4 R{2,4} + 4 R{2,5} + 4 R{2,6}
   + 4 R{2,7} + 4 R{2,8} + 4 R{2,9} + 4 R{2,10} <= 4
 R2_43: <= 0
 R2_44: <= 0
 R2_45: <= 0
 R2_46: 9 R{0,9} + 9 R{0,10} + 9 R{0,11} + 9 R{0,12} + 9 R{0,13}
   + 9 R{0,15} + 9 R{0,17} + 9 R{0,18} + 9 R{0,19} <= 9
 R2_47: 7 R{0,0} + 7 R{0,1} + 7 R{0,2} + 7 R{0,8} + 7 R{0,10} + 7 R{0,13}
   + 7 R{0,16} + 7 R{0,19} + 7 R{5,1} + 7 R{5,2} + 7 R{5,5} <= 7
 R2_48: 4 R{0,9} + 4 R{0,11} + 4 R{0,15} + 4 R{0,17} + 4 R{4,1} + 4 R{4,2}
   + 4 R{4,3} + 4 R{4,4} + 4 R{4,5} + 4 R{4,6} + 4 R{4,7} + 4 R{4,9}
   + 4 R{4,13} + 4 R{4,17} + 4 R{4,18} <= 4
 R2_49: <= 0
 R2_50: <= 0
 R2_51: 11 R{6,16} <= 11
 R2_52: 10 R{4,12} + 10 R{4,15} + 10 R{4,16} <= 10
 R2_53: 13 R{4,1} + 13 R{4,2} + 13 R{4,3} + 13 R{4,4} + 13 R{4,5}
   + 13 R{4,6} + 13 R{4,7} + 13 R{4,11} + 13 R{4,13} + 13 R{4,17}
   + 13 R{4,18} <= 13
 R2_54: 9 R{3,1} + 9 R{3,2} + 9 R{3,3} + 9 R{3,4} + 9 R{3,5} + 9 R{3,6}
   + 9 R{3,9} + 9 R{3,10} + 9 R{3,11} + 9 R{3,12} + 9 R{3,13} + 9 R{3,15}
   + 9 R{3,16} <= 9
 R2_55: 8 R{6,1} + 8 R{6,2} + 8 R{6,3} + 8 R{6,4} + 8 R{6,5} + 8 R{6,6}
   + 8 R{6,8} + 8 R{6,9} + 8 R{6,10} + 8 R{6,11} + 8 R{6,12} + 8 R{6,13}
   + 8 R{6,14} + 8 R{6,15} + 8 R{6,16} <= 8
 R2_56: 6 R{0,1} + 6 R{0,2} + 6 R{0,8} + 6 R{0,9} + 6 R{0,10} + 6 R{0,11}
   + 6 R{0,12} + 6 R{0,15} + 6 R{0,16} + 6 R{0,17} + 6 R{0,18} + 6 R{3,6}
   + 6 R{3,8} + 6 R{3,14} + 6 R{3,15} + 6 R{4,9} + 6 R{4,15} <= 6
 R2_57: <= 0
 R2_58: 15 R{6,13} + 15 R{6,16} <= 15
 R2_59: 10 R{3,12} + 10 R{3,14} + 10 R{3,15} + 10 R{3,17} + 10 R{4,8}
   + 10 R{4,10} + 10 R{4,14} + 10 R{4,16} + 10 R{6,10} + 10 R{6,15}
   + 10 R{6,16} <= 10
 R2_60: <= 0
 R2_61: 9 R{4,12} + 9 R{6,12} <= 9
 R2_62: <= 0
 R2_63: <= 0
 R2_64: <= 0
 R2_65: 5 R{0,13} + 5 R{0,19} + 5 R{6,1} + 5 R{6,2} + 5 R{6,3} + 5 R{6,4}
   + 5 R{6,5} + 5 R{6,6} + 5 R{6,7} + 5 R{6,8} + 5 R{6,9} + 5 R{6,10}
   + 5 R{6,11} + 5 R{6,12} + 5 R{6,13} + 5 R{6,14} + 5 R{6,15} + 5 R{6,16}
   <= 5
 R2_66: 7 R{6,1} + 7 R{6,2} + 7 R{6,3} + 7 R{6,4} + 7 R{6,5} + 7 R{6,8}
   + 7 R{6,10} + 7 R{6,12} + 7 R{6,13} + 7 R{6,14} + 7 R{6,15} <= 7
 R2_67: 3 R{0,11} + 3 R{0,15} + 3 R{6,8} + 3 R{6,11} <= 3
 R2_68: 6 R{1,10} + 6 R{4,1} + 6 R{4,4} + 6 R{4,7} + 6 R{4,9} + 6 R{4,11}
   + 6 R{4,13} + 6 R{4,18} + 6 R{6,2} + 6 R{6,3} + 6 R{6,5} + 6 R{6,8}
   + 6 R{6,11} + 6 R{6,12} + 6 R{6,14} + 6 R{6,15} + 6 R{6,16} <= 6
 R2_69: 7 R{0,0} + 7 R{0,1} + 7 R{0,2} + 7 R{0,8} + 7 R{0,10} + 7 R{0,13}
   + 7 R{0,19} + 7 R{2,10} + 7 R{2,11} + 7 R{4,1} + 7 R{4,2} + 7 R{4,3}
   + 7 R{4,4} + 7 R{4,5} + 7 R{4,6} + 7 R{4,7} + 7 R{4,8} + 7 R{4,9}
   + 7 R{4,10} + 7 R{4,11} + 7 R{4,12} + 7 R{4,14} + 7 R{4,16} + 7 R{4,17}
   <= 7
 R2_70: 11 R{1,1} + 11 R{1,2} + 11 R{1,3} <= 11
 R2_71: 7 R{3,1} + 7 R{3,2} + 7 R{3,3} + 7 R{3,4} + 7 R{3,5} + 7 R{3,6}
   + 7 R{3,7} + 7 R{3,8} + 7 R{3,9} + 7 R{3,11} + 7 R{3,12} + 7 R{3,13}
   + 7 R{3,14} + 7 R{3,16} + 7 R{3,17} + 7 R{6,13} <= 7
 R2_72: <= 0
 R2_73: 11 R{0,0} + 11 R{0,1} + 11 R{0,2} + 11 R{0,8} + 11 R{0,9}
   + 11 R{0,16} <= 11
 R2_74: 5 R{5,1} <= 5
 R2_75: 8 R{6,1} + 8 R{6,2} + 8 R{6,3} + 8 R{6,5} + 8 R{6,6} + 8 R{6,7}
   + 8 R{6,8} + 8 R{6,11} + 8 R{6,12} + 8 R{6,14} <= 8
 R2_76: 12 R{0,4} + 12 R{0,5} + 12 R{0,6} + 12 R{0,7} + 12 R{0,14}
   + 12 R{1,6} + 12 R{5,4} + 12 R{5,6} + 12 R{5,7} <= 12
 R2_77: 7 R{0,1} + 7 R{0,2} + 7 R{0,5} + 7 R{0,6} + 7 R{0,8} + 7 R{0,10}
   + 7 R{0,12} + 7 R{0,14} + 7 R{1,2} + 7 R{1,3} + 7 R{1,5} + 7 R{1,7}
   + 7 R{1,9} + 7 R{2,2} + 7 R{2,3} + 7 R{2,4} + 5 R{2,6} + 7 R{2,7}
   + 7 R{2,9} + 7 R{3,6} + 7 R{3,8} + 7 R{3,10} + 7 R{3,11} + 7 R{3,15}
   + 7 R{4,2} + 7 R{4,6} + 7 R{5,2} + 7 R{5,4} + 7 R{5,5} + 7 R{5,7}
   + 7 R{6,2} + 7 R{6,3} + 7 R{6,5} + 7 R{6,6} + 7 R{6,7} + 7 R{6,9}
   + 7 R{6,11} + 7 R{6,14} <= 7
Bounds
End
